! B3LYP D3BJ def2-TZVP OPT FREQ def2/J 
%geom
POTENTIALS
{C 0 22 0.5}
end
end
 
*xyz 0 1 
C   -8.82830642850204 1.93521762700065 0.63611980213388
C   -7.30236940595799 1.91636438450131 0.59860635915546
H   -9.2354306855423 2.49906806917901 -0.20712012271725
H   -9.20075668259081 2.3944988474793 1.55403748554956
H   -9.23538857429345 0.9222763965869 0.58192889483077
H   -6.92140754890946 2.93916431610093 0.68975001945844
C   -6.74025828675739 1.28352771922972 -0.67236305775049
H   -6.92158262861634 1.37255811305621 1.46973725754995
H   -7.12089808408763 1.82762656961821 -1.54466281925677
H   -7.12102357417294 0.25975750683881 -0.7651160074005
C   -5.21453419822292 1.25990787727948 -0.71892068759986
H   -4.83467315268768 2.28366183149438 -0.62415719676586
C   -4.65284841399261 0.62947501943576 -1.99076198469471
H   -4.83490227416882 0.71461696425849 0.15285272815368
H   -5.03248026350898 1.17476608666961 -2.86253533412403
H   -5.03270984952516 -0.39427879414925 -2.08552549374922
C   -3.127124363565 0.6058544420536 -2.03732048914847
H   -2.74635803958037 1.62962441736354 -1.94456868395911
C   -2.56501528538393 -0.02698377034643 -3.30829023218254
H   -2.74648420381929 0.06175598520346 -1.16502065494936
H   -2.94580370316332 0.51682154533998 -4.1794209932782
H   -2.94597758677979 -1.04978372103686 -3.39943187528235
C   -1.0390783804736 -0.04583685367784 -3.34580686968582
H   -0.63199628241519 0.96710455773261 -3.29161837751779
H   -0.66663000433532 -0.50511932019823 -4.26372469685792
H   -0.63195209893762 -0.60968581701333 -2.50256696991153
*
