#Powered by MCPoly

! B3LYP def2-SVP 

*xyz 0 1
C        -4.65267         -4.65267         -4.65267
C        -3.41103         -3.41103         -3.41103
F        -7.23198         -7.23198         -7.23198
F        -8.23816         -8.23816         -8.23816
F        -7.13828         -7.13828         -7.13828
F        -5.82805         -5.82805         -5.82805
F        -5.92156         -5.92156         -5.92156
F        -4.60392         -4.60392         -4.60392
F        -4.69750         -4.69750         -4.69750
F        -3.38726         -3.38726         -3.38726
F        -3.29354         -3.29354         -3.29354
F        -2.28736         -2.28736         -2.28736
*
